c *********************************
c * Circuit generated by BenCGen
c *
c * RippleCarryAdder_71_71_71_InOutT
c *
c * Ports with 1 gate(s): 1
c * Ports with 2 gate(s): 356
c * Total gates: 357
c *********************************
p cnf 499 1212
1 216 0
-1 -216 0
1 -215 0
216 -215 0
-1 -216 215 0
1 72 -218 0
-1 72 218 0
1 -72 218 0
-1 -72 -218 0
218 215 -143 0
-218 215 143 0
218 -215 143 0
-218 -215 -143 0
215 -219 0
218 -219 0
-215 -218 219 0
72 -220 0
1 -220 0
-72 -1 220 0
-219 217 0
-220 217 0
219 220 -217 0
2 73 -222 0
-2 73 222 0
2 -73 222 0
-2 -73 -222 0
222 217 -144 0
-222 217 144 0
222 -217 144 0
-222 -217 -144 0
217 -223 0
222 -223 0
-217 -222 223 0
73 -224 0
2 -224 0
-73 -2 224 0
-223 221 0
-224 221 0
223 224 -221 0
3 74 -226 0
-3 74 226 0
3 -74 226 0
-3 -74 -226 0
226 221 -145 0
-226 221 145 0
226 -221 145 0
-226 -221 -145 0
221 -227 0
226 -227 0
-221 -226 227 0
74 -228 0
3 -228 0
-74 -3 228 0
-227 225 0
-228 225 0
227 228 -225 0
4 75 -230 0
-4 75 230 0
4 -75 230 0
-4 -75 -230 0
230 225 -146 0
-230 225 146 0
230 -225 146 0
-230 -225 -146 0
225 -231 0
230 -231 0
-225 -230 231 0
75 -232 0
4 -232 0
-75 -4 232 0
-231 229 0
-232 229 0
231 232 -229 0
5 76 -234 0
-5 76 234 0
5 -76 234 0
-5 -76 -234 0
234 229 -147 0
-234 229 147 0
234 -229 147 0
-234 -229 -147 0
229 -235 0
234 -235 0
-229 -234 235 0
76 -236 0
5 -236 0
-76 -5 236 0
-235 233 0
-236 233 0
235 236 -233 0
6 77 -238 0
-6 77 238 0
6 -77 238 0
-6 -77 -238 0
238 233 -148 0
-238 233 148 0
238 -233 148 0
-238 -233 -148 0
233 -239 0
238 -239 0
-233 -238 239 0
77 -240 0
6 -240 0
-77 -6 240 0
-239 237 0
-240 237 0
239 240 -237 0
7 78 -242 0
-7 78 242 0
7 -78 242 0
-7 -78 -242 0
242 237 -149 0
-242 237 149 0
242 -237 149 0
-242 -237 -149 0
237 -243 0
242 -243 0
-237 -242 243 0
78 -244 0
7 -244 0
-78 -7 244 0
-243 241 0
-244 241 0
243 244 -241 0
8 79 -246 0
-8 79 246 0
8 -79 246 0
-8 -79 -246 0
246 241 -150 0
-246 241 150 0
246 -241 150 0
-246 -241 -150 0
241 -247 0
246 -247 0
-241 -246 247 0
79 -248 0
8 -248 0
-79 -8 248 0
-247 245 0
-248 245 0
247 248 -245 0
9 80 -250 0
-9 80 250 0
9 -80 250 0
-9 -80 -250 0
250 245 -151 0
-250 245 151 0
250 -245 151 0
-250 -245 -151 0
245 -251 0
250 -251 0
-245 -250 251 0
80 -252 0
9 -252 0
-80 -9 252 0
-251 249 0
-252 249 0
251 252 -249 0
10 81 -254 0
-10 81 254 0
10 -81 254 0
-10 -81 -254 0
254 249 -152 0
-254 249 152 0
254 -249 152 0
-254 -249 -152 0
249 -255 0
254 -255 0
-249 -254 255 0
81 -256 0
10 -256 0
-81 -10 256 0
-255 253 0
-256 253 0
255 256 -253 0
11 82 -258 0
-11 82 258 0
11 -82 258 0
-11 -82 -258 0
258 253 -153 0
-258 253 153 0
258 -253 153 0
-258 -253 -153 0
253 -259 0
258 -259 0
-253 -258 259 0
82 -260 0
11 -260 0
-82 -11 260 0
-259 257 0
-260 257 0
259 260 -257 0
12 83 -262 0
-12 83 262 0
12 -83 262 0
-12 -83 -262 0
262 257 -154 0
-262 257 154 0
262 -257 154 0
-262 -257 -154 0
257 -263 0
262 -263 0
-257 -262 263 0
83 -264 0
12 -264 0
-83 -12 264 0
-263 261 0
-264 261 0
263 264 -261 0
13 84 -266 0
-13 84 266 0
13 -84 266 0
-13 -84 -266 0
266 261 -155 0
-266 261 155 0
266 -261 155 0
-266 -261 -155 0
261 -267 0
266 -267 0
-261 -266 267 0
84 -268 0
13 -268 0
-84 -13 268 0
-267 265 0
-268 265 0
267 268 -265 0
14 85 -270 0
-14 85 270 0
14 -85 270 0
-14 -85 -270 0
270 265 -156 0
-270 265 156 0
270 -265 156 0
-270 -265 -156 0
265 -271 0
270 -271 0
-265 -270 271 0
85 -272 0
14 -272 0
-85 -14 272 0
-271 269 0
-272 269 0
271 272 -269 0
15 86 -274 0
-15 86 274 0
15 -86 274 0
-15 -86 -274 0
274 269 -157 0
-274 269 157 0
274 -269 157 0
-274 -269 -157 0
269 -275 0
274 -275 0
-269 -274 275 0
86 -276 0
15 -276 0
-86 -15 276 0
-275 273 0
-276 273 0
275 276 -273 0
16 87 -278 0
-16 87 278 0
16 -87 278 0
-16 -87 -278 0
278 273 -158 0
-278 273 158 0
278 -273 158 0
-278 -273 -158 0
273 -279 0
278 -279 0
-273 -278 279 0
87 -280 0
16 -280 0
-87 -16 280 0
-279 277 0
-280 277 0
279 280 -277 0
17 88 -282 0
-17 88 282 0
17 -88 282 0
-17 -88 -282 0
282 277 -159 0
-282 277 159 0
282 -277 159 0
-282 -277 -159 0
277 -283 0
282 -283 0
-277 -282 283 0
88 -284 0
17 -284 0
-88 -17 284 0
-283 281 0
-284 281 0
283 284 -281 0
18 89 -286 0
-18 89 286 0
18 -89 286 0
-18 -89 -286 0
286 281 -160 0
-286 281 160 0
286 -281 160 0
-286 -281 -160 0
281 -287 0
286 -287 0
-281 -286 287 0
89 -288 0
18 -288 0
-89 -18 288 0
-287 285 0
-288 285 0
287 288 -285 0
19 90 -290 0
-19 90 290 0
19 -90 290 0
-19 -90 -290 0
290 285 -161 0
-290 285 161 0
290 -285 161 0
-290 -285 -161 0
285 -291 0
290 -291 0
-285 -290 291 0
90 -292 0
19 -292 0
-90 -19 292 0
-291 289 0
-292 289 0
291 292 -289 0
20 91 -294 0
-20 91 294 0
20 -91 294 0
-20 -91 -294 0
294 289 -162 0
-294 289 162 0
294 -289 162 0
-294 -289 -162 0
289 -295 0
294 -295 0
-289 -294 295 0
91 -296 0
20 -296 0
-91 -20 296 0
-295 293 0
-296 293 0
295 296 -293 0
21 92 -298 0
-21 92 298 0
21 -92 298 0
-21 -92 -298 0
298 293 -163 0
-298 293 163 0
298 -293 163 0
-298 -293 -163 0
293 -299 0
298 -299 0
-293 -298 299 0
92 -300 0
21 -300 0
-92 -21 300 0
-299 297 0
-300 297 0
299 300 -297 0
22 93 -302 0
-22 93 302 0
22 -93 302 0
-22 -93 -302 0
302 297 -164 0
-302 297 164 0
302 -297 164 0
-302 -297 -164 0
297 -303 0
302 -303 0
-297 -302 303 0
93 -304 0
22 -304 0
-93 -22 304 0
-303 301 0
-304 301 0
303 304 -301 0
23 94 -306 0
-23 94 306 0
23 -94 306 0
-23 -94 -306 0
306 301 -165 0
-306 301 165 0
306 -301 165 0
-306 -301 -165 0
301 -307 0
306 -307 0
-301 -306 307 0
94 -308 0
23 -308 0
-94 -23 308 0
-307 305 0
-308 305 0
307 308 -305 0
24 95 -310 0
-24 95 310 0
24 -95 310 0
-24 -95 -310 0
310 305 -166 0
-310 305 166 0
310 -305 166 0
-310 -305 -166 0
305 -311 0
310 -311 0
-305 -310 311 0
95 -312 0
24 -312 0
-95 -24 312 0
-311 309 0
-312 309 0
311 312 -309 0
25 96 -314 0
-25 96 314 0
25 -96 314 0
-25 -96 -314 0
314 309 -167 0
-314 309 167 0
314 -309 167 0
-314 -309 -167 0
309 -315 0
314 -315 0
-309 -314 315 0
96 -316 0
25 -316 0
-96 -25 316 0
-315 313 0
-316 313 0
315 316 -313 0
26 97 -318 0
-26 97 318 0
26 -97 318 0
-26 -97 -318 0
318 313 -168 0
-318 313 168 0
318 -313 168 0
-318 -313 -168 0
313 -319 0
318 -319 0
-313 -318 319 0
97 -320 0
26 -320 0
-97 -26 320 0
-319 317 0
-320 317 0
319 320 -317 0
27 98 -322 0
-27 98 322 0
27 -98 322 0
-27 -98 -322 0
322 317 -169 0
-322 317 169 0
322 -317 169 0
-322 -317 -169 0
317 -323 0
322 -323 0
-317 -322 323 0
98 -324 0
27 -324 0
-98 -27 324 0
-323 321 0
-324 321 0
323 324 -321 0
28 99 -326 0
-28 99 326 0
28 -99 326 0
-28 -99 -326 0
326 321 -170 0
-326 321 170 0
326 -321 170 0
-326 -321 -170 0
321 -327 0
326 -327 0
-321 -326 327 0
99 -328 0
28 -328 0
-99 -28 328 0
-327 325 0
-328 325 0
327 328 -325 0
29 100 -330 0
-29 100 330 0
29 -100 330 0
-29 -100 -330 0
330 325 -171 0
-330 325 171 0
330 -325 171 0
-330 -325 -171 0
325 -331 0
330 -331 0
-325 -330 331 0
100 -332 0
29 -332 0
-100 -29 332 0
-331 329 0
-332 329 0
331 332 -329 0
30 101 -334 0
-30 101 334 0
30 -101 334 0
-30 -101 -334 0
334 329 -172 0
-334 329 172 0
334 -329 172 0
-334 -329 -172 0
329 -335 0
334 -335 0
-329 -334 335 0
101 -336 0
30 -336 0
-101 -30 336 0
-335 333 0
-336 333 0
335 336 -333 0
31 102 -338 0
-31 102 338 0
31 -102 338 0
-31 -102 -338 0
338 333 -173 0
-338 333 173 0
338 -333 173 0
-338 -333 -173 0
333 -339 0
338 -339 0
-333 -338 339 0
102 -340 0
31 -340 0
-102 -31 340 0
-339 337 0
-340 337 0
339 340 -337 0
32 103 -342 0
-32 103 342 0
32 -103 342 0
-32 -103 -342 0
342 337 -174 0
-342 337 174 0
342 -337 174 0
-342 -337 -174 0
337 -343 0
342 -343 0
-337 -342 343 0
103 -344 0
32 -344 0
-103 -32 344 0
-343 341 0
-344 341 0
343 344 -341 0
33 104 -346 0
-33 104 346 0
33 -104 346 0
-33 -104 -346 0
346 341 -175 0
-346 341 175 0
346 -341 175 0
-346 -341 -175 0
341 -347 0
346 -347 0
-341 -346 347 0
104 -348 0
33 -348 0
-104 -33 348 0
-347 345 0
-348 345 0
347 348 -345 0
34 105 -350 0
-34 105 350 0
34 -105 350 0
-34 -105 -350 0
350 345 -176 0
-350 345 176 0
350 -345 176 0
-350 -345 -176 0
345 -351 0
350 -351 0
-345 -350 351 0
105 -352 0
34 -352 0
-105 -34 352 0
-351 349 0
-352 349 0
351 352 -349 0
35 106 -354 0
-35 106 354 0
35 -106 354 0
-35 -106 -354 0
354 349 -177 0
-354 349 177 0
354 -349 177 0
-354 -349 -177 0
349 -355 0
354 -355 0
-349 -354 355 0
106 -356 0
35 -356 0
-106 -35 356 0
-355 353 0
-356 353 0
355 356 -353 0
36 107 -358 0
-36 107 358 0
36 -107 358 0
-36 -107 -358 0
358 353 -178 0
-358 353 178 0
358 -353 178 0
-358 -353 -178 0
353 -359 0
358 -359 0
-353 -358 359 0
107 -360 0
36 -360 0
-107 -36 360 0
-359 357 0
-360 357 0
359 360 -357 0
37 108 -362 0
-37 108 362 0
37 -108 362 0
-37 -108 -362 0
362 357 -179 0
-362 357 179 0
362 -357 179 0
-362 -357 -179 0
357 -363 0
362 -363 0
-357 -362 363 0
108 -364 0
37 -364 0
-108 -37 364 0
-363 361 0
-364 361 0
363 364 -361 0
38 109 -366 0
-38 109 366 0
38 -109 366 0
-38 -109 -366 0
366 361 -180 0
-366 361 180 0
366 -361 180 0
-366 -361 -180 0
361 -367 0
366 -367 0
-361 -366 367 0
109 -368 0
38 -368 0
-109 -38 368 0
-367 365 0
-368 365 0
367 368 -365 0
39 110 -370 0
-39 110 370 0
39 -110 370 0
-39 -110 -370 0
370 365 -181 0
-370 365 181 0
370 -365 181 0
-370 -365 -181 0
365 -371 0
370 -371 0
-365 -370 371 0
110 -372 0
39 -372 0
-110 -39 372 0
-371 369 0
-372 369 0
371 372 -369 0
40 111 -374 0
-40 111 374 0
40 -111 374 0
-40 -111 -374 0
374 369 -182 0
-374 369 182 0
374 -369 182 0
-374 -369 -182 0
369 -375 0
374 -375 0
-369 -374 375 0
111 -376 0
40 -376 0
-111 -40 376 0
-375 373 0
-376 373 0
375 376 -373 0
41 112 -378 0
-41 112 378 0
41 -112 378 0
-41 -112 -378 0
378 373 -183 0
-378 373 183 0
378 -373 183 0
-378 -373 -183 0
373 -379 0
378 -379 0
-373 -378 379 0
112 -380 0
41 -380 0
-112 -41 380 0
-379 377 0
-380 377 0
379 380 -377 0
42 113 -382 0
-42 113 382 0
42 -113 382 0
-42 -113 -382 0
382 377 -184 0
-382 377 184 0
382 -377 184 0
-382 -377 -184 0
377 -383 0
382 -383 0
-377 -382 383 0
113 -384 0
42 -384 0
-113 -42 384 0
-383 381 0
-384 381 0
383 384 -381 0
43 114 -386 0
-43 114 386 0
43 -114 386 0
-43 -114 -386 0
386 381 -185 0
-386 381 185 0
386 -381 185 0
-386 -381 -185 0
381 -387 0
386 -387 0
-381 -386 387 0
114 -388 0
43 -388 0
-114 -43 388 0
-387 385 0
-388 385 0
387 388 -385 0
44 115 -390 0
-44 115 390 0
44 -115 390 0
-44 -115 -390 0
390 385 -186 0
-390 385 186 0
390 -385 186 0
-390 -385 -186 0
385 -391 0
390 -391 0
-385 -390 391 0
115 -392 0
44 -392 0
-115 -44 392 0
-391 389 0
-392 389 0
391 392 -389 0
45 116 -394 0
-45 116 394 0
45 -116 394 0
-45 -116 -394 0
394 389 -187 0
-394 389 187 0
394 -389 187 0
-394 -389 -187 0
389 -395 0
394 -395 0
-389 -394 395 0
116 -396 0
45 -396 0
-116 -45 396 0
-395 393 0
-396 393 0
395 396 -393 0
46 117 -398 0
-46 117 398 0
46 -117 398 0
-46 -117 -398 0
398 393 -188 0
-398 393 188 0
398 -393 188 0
-398 -393 -188 0
393 -399 0
398 -399 0
-393 -398 399 0
117 -400 0
46 -400 0
-117 -46 400 0
-399 397 0
-400 397 0
399 400 -397 0
47 118 -402 0
-47 118 402 0
47 -118 402 0
-47 -118 -402 0
402 397 -189 0
-402 397 189 0
402 -397 189 0
-402 -397 -189 0
397 -403 0
402 -403 0
-397 -402 403 0
118 -404 0
47 -404 0
-118 -47 404 0
-403 401 0
-404 401 0
403 404 -401 0
48 119 -406 0
-48 119 406 0
48 -119 406 0
-48 -119 -406 0
406 401 -190 0
-406 401 190 0
406 -401 190 0
-406 -401 -190 0
401 -407 0
406 -407 0
-401 -406 407 0
119 -408 0
48 -408 0
-119 -48 408 0
-407 405 0
-408 405 0
407 408 -405 0
49 120 -410 0
-49 120 410 0
49 -120 410 0
-49 -120 -410 0
410 405 -191 0
-410 405 191 0
410 -405 191 0
-410 -405 -191 0
405 -411 0
410 -411 0
-405 -410 411 0
120 -412 0
49 -412 0
-120 -49 412 0
-411 409 0
-412 409 0
411 412 -409 0
50 121 -414 0
-50 121 414 0
50 -121 414 0
-50 -121 -414 0
414 409 -192 0
-414 409 192 0
414 -409 192 0
-414 -409 -192 0
409 -415 0
414 -415 0
-409 -414 415 0
121 -416 0
50 -416 0
-121 -50 416 0
-415 413 0
-416 413 0
415 416 -413 0
51 122 -418 0
-51 122 418 0
51 -122 418 0
-51 -122 -418 0
418 413 -193 0
-418 413 193 0
418 -413 193 0
-418 -413 -193 0
413 -419 0
418 -419 0
-413 -418 419 0
122 -420 0
51 -420 0
-122 -51 420 0
-419 417 0
-420 417 0
419 420 -417 0
52 123 -422 0
-52 123 422 0
52 -123 422 0
-52 -123 -422 0
422 417 -194 0
-422 417 194 0
422 -417 194 0
-422 -417 -194 0
417 -423 0
422 -423 0
-417 -422 423 0
123 -424 0
52 -424 0
-123 -52 424 0
-423 421 0
-424 421 0
423 424 -421 0
53 124 -426 0
-53 124 426 0
53 -124 426 0
-53 -124 -426 0
426 421 -195 0
-426 421 195 0
426 -421 195 0
-426 -421 -195 0
421 -427 0
426 -427 0
-421 -426 427 0
124 -428 0
53 -428 0
-124 -53 428 0
-427 425 0
-428 425 0
427 428 -425 0
54 125 -430 0
-54 125 430 0
54 -125 430 0
-54 -125 -430 0
430 425 -196 0
-430 425 196 0
430 -425 196 0
-430 -425 -196 0
425 -431 0
430 -431 0
-425 -430 431 0
125 -432 0
54 -432 0
-125 -54 432 0
-431 429 0
-432 429 0
431 432 -429 0
55 126 -434 0
-55 126 434 0
55 -126 434 0
-55 -126 -434 0
434 429 -197 0
-434 429 197 0
434 -429 197 0
-434 -429 -197 0
429 -435 0
434 -435 0
-429 -434 435 0
126 -436 0
55 -436 0
-126 -55 436 0
-435 433 0
-436 433 0
435 436 -433 0
56 127 -438 0
-56 127 438 0
56 -127 438 0
-56 -127 -438 0
438 433 -198 0
-438 433 198 0
438 -433 198 0
-438 -433 -198 0
433 -439 0
438 -439 0
-433 -438 439 0
127 -440 0
56 -440 0
-127 -56 440 0
-439 437 0
-440 437 0
439 440 -437 0
57 128 -442 0
-57 128 442 0
57 -128 442 0
-57 -128 -442 0
442 437 -199 0
-442 437 199 0
442 -437 199 0
-442 -437 -199 0
437 -443 0
442 -443 0
-437 -442 443 0
128 -444 0
57 -444 0
-128 -57 444 0
-443 441 0
-444 441 0
443 444 -441 0
58 129 -446 0
-58 129 446 0
58 -129 446 0
-58 -129 -446 0
446 441 -200 0
-446 441 200 0
446 -441 200 0
-446 -441 -200 0
441 -447 0
446 -447 0
-441 -446 447 0
129 -448 0
58 -448 0
-129 -58 448 0
-447 445 0
-448 445 0
447 448 -445 0
59 130 -450 0
-59 130 450 0
59 -130 450 0
-59 -130 -450 0
450 445 -201 0
-450 445 201 0
450 -445 201 0
-450 -445 -201 0
445 -451 0
450 -451 0
-445 -450 451 0
130 -452 0
59 -452 0
-130 -59 452 0
-451 449 0
-452 449 0
451 452 -449 0
60 131 -454 0
-60 131 454 0
60 -131 454 0
-60 -131 -454 0
454 449 -202 0
-454 449 202 0
454 -449 202 0
-454 -449 -202 0
449 -455 0
454 -455 0
-449 -454 455 0
131 -456 0
60 -456 0
-131 -60 456 0
-455 453 0
-456 453 0
455 456 -453 0
61 132 -458 0
-61 132 458 0
61 -132 458 0
-61 -132 -458 0
458 453 -203 0
-458 453 203 0
458 -453 203 0
-458 -453 -203 0
453 -459 0
458 -459 0
-453 -458 459 0
132 -460 0
61 -460 0
-132 -61 460 0
-459 457 0
-460 457 0
459 460 -457 0
62 133 -462 0
-62 133 462 0
62 -133 462 0
-62 -133 -462 0
462 457 -204 0
-462 457 204 0
462 -457 204 0
-462 -457 -204 0
457 -463 0
462 -463 0
-457 -462 463 0
133 -464 0
62 -464 0
-133 -62 464 0
-463 461 0
-464 461 0
463 464 -461 0
63 134 -466 0
-63 134 466 0
63 -134 466 0
-63 -134 -466 0
466 461 -205 0
-466 461 205 0
466 -461 205 0
-466 -461 -205 0
461 -467 0
466 -467 0
-461 -466 467 0
134 -468 0
63 -468 0
-134 -63 468 0
-467 465 0
-468 465 0
467 468 -465 0
64 135 -470 0
-64 135 470 0
64 -135 470 0
-64 -135 -470 0
470 465 -206 0
-470 465 206 0
470 -465 206 0
-470 -465 -206 0
465 -471 0
470 -471 0
-465 -470 471 0
135 -472 0
64 -472 0
-135 -64 472 0
-471 469 0
-472 469 0
471 472 -469 0
65 136 -474 0
-65 136 474 0
65 -136 474 0
-65 -136 -474 0
474 469 -207 0
-474 469 207 0
474 -469 207 0
-474 -469 -207 0
469 -475 0
474 -475 0
-469 -474 475 0
136 -476 0
65 -476 0
-136 -65 476 0
-475 473 0
-476 473 0
475 476 -473 0
66 137 -478 0
-66 137 478 0
66 -137 478 0
-66 -137 -478 0
478 473 -208 0
-478 473 208 0
478 -473 208 0
-478 -473 -208 0
473 -479 0
478 -479 0
-473 -478 479 0
137 -480 0
66 -480 0
-137 -66 480 0
-479 477 0
-480 477 0
479 480 -477 0
67 138 -482 0
-67 138 482 0
67 -138 482 0
-67 -138 -482 0
482 477 -209 0
-482 477 209 0
482 -477 209 0
-482 -477 -209 0
477 -483 0
482 -483 0
-477 -482 483 0
138 -484 0
67 -484 0
-138 -67 484 0
-483 481 0
-484 481 0
483 484 -481 0
68 139 -486 0
-68 139 486 0
68 -139 486 0
-68 -139 -486 0
486 481 -210 0
-486 481 210 0
486 -481 210 0
-486 -481 -210 0
481 -487 0
486 -487 0
-481 -486 487 0
139 -488 0
68 -488 0
-139 -68 488 0
-487 485 0
-488 485 0
487 488 -485 0
69 140 -490 0
-69 140 490 0
69 -140 490 0
-69 -140 -490 0
490 485 -211 0
-490 485 211 0
490 -485 211 0
-490 -485 -211 0
485 -491 0
490 -491 0
-485 -490 491 0
140 -492 0
69 -492 0
-140 -69 492 0
-491 489 0
-492 489 0
491 492 -489 0
70 141 -494 0
-70 141 494 0
70 -141 494 0
-70 -141 -494 0
494 489 -212 0
-494 489 212 0
494 -489 212 0
-494 -489 -212 0
489 -495 0
494 -495 0
-489 -494 495 0
141 -496 0
70 -496 0
-141 -70 496 0
-495 493 0
-496 493 0
495 496 -493 0
71 142 -497 0
-71 142 497 0
71 -142 497 0
-71 -142 -497 0
497 493 -213 0
-497 493 213 0
497 -493 213 0
-497 -493 -213 0
493 -498 0
497 -498 0
-493 -497 498 0
142 -499 0
71 -499 0
-142 -71 499 0
-498 214 0
-499 214 0
498 499 -214 0
